c random cnf
p cnf 50 50
14 -20 0
27 -43 0
-3 -24 0
21 -23 0
-3 -30 0
6 50 0
6 -33 0
13 19 0
38 49 0
-1 16 0
-21 -45 0
-32 -47 0
15 -21 0
-10 16 0
-16 27 0
-23 -49 0
9 -24 0
19 34 0
-25 32 0
-23 32 0
-16 -29 0
-37 -42 0
-7 19 0
18 -28 0
10 -18 0
11 16 0
21 -46 0
32 43 0
11 -21 0
13 -42 0
-27 47 0
31 37 0
8 21 0
1 18 0
-13 -38 0
16 39 0
29 48 0
-1 -24 0
28 -35 0
-1 -2 0
12 -38 0
-10 -35 0
3 -23 0
24 -43 0
-11 -14 0
-17 -27 0
-35 42 0
37 -50 0
16 -28 0
-21 43 0
